WARNING: for repeatability, setting FPU to use double precision
============================[ Problem Statistics ]=============================
|                                                                             |
|  Number of variables:           100                                         |
|  Number of clauses:             449                                         |
|  Parse time:                   0.00 s                                       |
|  Eliminated clauses:           0.00 Mb                                      |
|  Simplification time:          0.00 s                                       |
|                                                                             |
============================[ Search Statistics ]==============================
| Conflicts |          ORIGINAL         |          LEARNT          | Progress |
|           |    Vars  Clauses Literals |    Limit  Clauses Lit/Cl |          |
===============================================================================
|       100 |      97      446     1356 |      163      100      7 |  0.010 % |
|       250 |      96      435     1322 |      179       94      6 |  1.021 % |
===============================================================================
restarts              : 3
conflicts             : 298            (86754 /sec)
decisions             : 357            (0.00 % random) (103930 /sec)
propagations          : 6800           (1979622 /sec)
conflict literals     : 1728           (22.68 % deleted)
Memory used           : 13.00 MB
CPU time              : 0.003435 s

SATISFIABLE
